152 5178
2 4 8 11 12 15 16 18 20 21 23 27 29 30 33 34 35 37 38 39 40 42 47 48 49 50 53 54 55 56 57 58 59 61 63 64 65 66 70 71 75 79 80 81 85 87 88 91 92 93 94 97 102 103 106 107 108 109 113 119 123 127 129 131 132 133 134 139 140 142 144 150 151
4 5 6 8 12 14 16 18 19 21 29 30 31 35 37 43 44 45 46 47 48 49 50 52 55 56 57 58 59 63 66 67 68 70 72 74 79 82 83 84 85 88 89 90 99 101 103 105 106 107 108 109 111 112 114 118 120 121 122 123 129 130 131 138 139 145 147
0 3 4 5 10 11 12 13 15 19 20 22 23 25 26 30 31 34 40 43 44 45 46 47 48 54 55 57 59 60 63 65 66 67 68 70 72 73 74 75 76 77 78 84 91 92 94 96 97 98 101 103 104 106 109 110 111 113 114 118 119 120 122 124 125 126 129 131 134 135 136 144 145 147 148 150 151
2 4 8 9 12 17 19 21 22 29 31 32 37 41 45 49 50 51 62 64 66 68 69 73 74 75 79 80 84 85 86 88 89 90 94 95 98 104 105 107 113 115 116 119 120 121 122 124 125 129 130 134 135 137 138 139 142 143 144 146 147 149
0 1 2 3 5 6 7 8 9 11 12 13 14 17 22 23 25 28 30 35 36 38 42 43 46 48 51 52 54 55 56 57 58 59 60 62 63 64 65 66 67 68 71 72 73 74 77 89 90 92 94 97 98 99 101 102 104 105 111 115 116 120 121 126 127 129 131 132 140 142 144 145 146 148 150
1 2 4 6 7 8 10 12 14 18 20 22 24 25 26 31 37 39 40 41 42 43 44 45 47 50 51 52 54 55 58 71 74 78 82 86 87 95 101 103 104 106 109 111 113 114 115 117 120 122 123 124 127 128 129 130 131 133 134 136 138 141 149 151
1 4 5 8 11 15 16 18 22 23 26 34 35 41 42 44 45 46 49 50 55 56 57 61 64 65 67 68 69 70 74 75 76 77 79 81 83 84 87 88 89 90 92 94 95 96 97 98 108 109 111 112 113 116 117 120 124 127 130 132 133 134 137 140 141 144 146 147 148 151
4 5 10 11 12 13 17 18 21 22 23 24 25 26 29 32 35 36 37 42 44 45 46 51 53 55 59 62 65 66 69 70 72 77 78 79 80 81 87 88 89 90 93 95 99 101 104 106 107 111 113 114 116 118 119 121 122 123 124 125 129 130 133 135 136 138 140 141 147 148 149
0 1 3 4 5 6 16 20 21 23 24 26 27 29 36 37 40 44 47 48 51 52 53 56 57 59 62 65 68 70 71 72 73 75 76 78 80 81 83 84 85 86 88 89 91 92 93 96 97 101 109 111 112 113 118 120 121 123 124 126 127 130 133 136 138 140 141 142 148
3 4 13 16 18 21 23 26 27 31 32 33 34 38 39 40 42 43 47 51 56 57 58 59 60 61 64 67 69 72 73 74 75 79 88 91 92 95 96 98 101 102 104 105 108 109 111 112 113 115 116 117 119 121 124 134 137 139 146
2 5 7 11 12 16 17 20 21 22 29 31 35 36 37 38 39 42 43 46 49 55 58 60 61 64 65 68 69 70 71 74 75 77 79 80 83 88 90 93 95 97 98 99 102 104 105 107 108 109 110 111 112 115 117 118 120 121 124 125 126 127 129 131 133 134 135 136 138 141 146 147 150 151
0 2 4 6 7 10 12 15 18 19 23 24 25 27 30 31 32 33 35 38 41 42 43 44 47 52 57 58 59 62 64 65 70 71 75 76 80 81 87 89 90 92 94 97 98 99 102 109 111 113 114 115 116 125 127 130 132 133 135 136 137 139 142 143 146 147 151
0 1 2 3 4 5 7 10 11 14 17 18 19 22 25 28 30 31 32 36 38 41 42 43 44 46 52 53 58 59 60 63 65 70 71 72 79 82 84 85 89 90 91 92 94 95 97 99 102 108 109 119 120 121 124 128 129 130 131 134 135 138 140 143 144 145 147 148 149 151
2 4 7 9 14 16 17 18 30 32 35 37 40 42 43 44 45 46 47 48 49 50 52 53 57 58 59 60 64 66 69 71 76 77 78 79 80 81 82 84 85 86 90 91 92 94 97 99 101 102 104 105 107 108 109 110 112 120 123 126 130 131 133 134 138 139 142 150
1 4 5 12 13 16 20 21 22 23 24 25 26 30 31 33 34 36 37 40 42 43 45 47 49 51 52 54 55 58 61 62 63 66 69 70 72 73 76 77 81 82 84 85 86 91 97 98 103 106 108 111 116 117 118 119 121 125 126 127 128 129 138 139 142 145 146 147 151
0 2 6 11 16 17 18 23 27 28 30 32 34 35 38 39 40 44 50 51 54 58 59 60 63 64 65 67 68 69 75 76 78 80 85 87 91 92 93 94 97 100 102 105 108 109 111 115 116 117 119 120 121 122 125 132 133 137 138 139 142 146 150 151
0 1 6 8 9 10 13 14 15 19 24 25 26 27 31 32 38 39 42 43 55 59 63 64 66 69 70 72 73 75 79 86 88 90 91 92 94 96 100 102 103 104 105 107 108 111 114 116 117 124 125 126 127 128 130 136 137 138 140 141 144 147 148 149
3 4 7 10 12 13 15 19 20 21 22 26 28 29 30 31 33 35 38 42 43 44 53 56 57 58 60 62 66 67 70 71 72 73 83 84 87 89 92 94 95 98 99 102 103 104 107 108 109 110 111 112 114 115 116 117 118 119 120 122 125 127 130 132 133 136 141 143 144 145 146 150 151
0 1 5 6 7 9 11 12 13 15 19 20 23 26 35 40 43 45 46 48 49 51 52 53 56 57 58 59 60 62 69 74 75 77 78 81 84 90 91 93 94 95 98 99 103 106 108 112 117 118 123 126 127 128 130 132 133 134 135 139 140 141 149
1 2 3 11 12 16 17 18 21 22 24 30 34 35 36 37 39 40 43 46 47 49 50 52 54 56 57 58 60 61 62 63 65 66 67 68 70 73 74 77 78 79 80 81 82 83 84 89 92 93 96 100 102 103 104 105 106 107 108 109 110 113 117 120 123 126 128 129 130 133 135 137 138 139 140 146 147 148 150
0 2 5 8 10 14 17 18 22 28 30 33 35 36 37 38 42 45 46 48 50 51 57 60 61 62 64 65 66 72 74 75 77 80 81 82 86 87 88 89 93 94 96 97 98 99 103 106 107 109 112 113 114 121 126 129 131 132 136 139 142 148
0 1 3 7 8 9 10 14 17 19 22 23 25 30 31 32 35 36 39 40 42 43 44 45 46 47 48 49 50 51 52 53 55 56 58 64 67 69 72 74 75 78 80 81 84 86 91 98 103 107 111 112 113 114 124 128 130 132 134 140 145 146 149 150
2 3 4 5 6 7 10 12 14 17 19 20 21 26 27 28 30 31 33 34 35 37 39 42 43 44 47 48 51 52 53 55 58 59 60 61 63 64 67 69 76 79 80 81 86 87 88 91 94 96 97 99 103 104 107 109 110 112 113 114 115 117 118 119 122 124 126 128 132 135 136 137 138 143 145 147 148 150 151
0 2 4 6 7 8 9 11 14 15 18 21 27 28 29 31 32 33 34 39 40 41 42 43 44 46 49 53 61 63 64 65 69 71 72 76 78 80 81 82 89 90 91 92 94 95 97 100 103 104 106 109 110 112 121 125 135 136 137 139 141 142 143 145 146 147 149 150
5 7 8 11 14 16 19 25 27 28 29 31 32 36 44 47 49 50 51 54 55 58 60 61 63 64 66 71 72 74 76 78 80 82 83 84 85 87 89 90 91 93 94 96 98 101 102 105 106 107 109 110 111 121 122 123 124 131 133 135 137 140 141 146 147 150 151
2 4 5 7 11 12 14 16 21 24 28 35 36 38 44 45 47 48 49 53 55 61 68 69 74 75 76 77 82 85 86 87 88 90 91 92 93 95 96 97 99 103 104 105 106 107 108 111 113 114 115 116 117 118 121 123 126 127 130 133 134 136 137 139 143 149 150 151
2 5 6 7 8 9 14 16 17 18 22 27 29 30 32 33 34 36 38 40 41 45 48 51 54 56 57 58 59 61 63 64 65 69 71 72 73 77 78 79 80 81 86 87 88 96 97 103 112 116 120 121 122 123 124 133 134 136 140 141 143 144 147 148 151
0 8 9 11 15 16 22 23 24 26 28 30 31 32 34 35 36 43 44 45 46 47 48 50 52 53 54 57 58 59 60 65 66 69 71 73 74 75 77 78 82 84 85 90 91 93 98 99 101 102 105 107 108 110 111 112 113 114 115 117 119 120 121 122 126 127 129 131 132 133 134 135 137 141 144 147 148 149
4 12 15 17 20 22 23 24 25 27 34 36 37 39 40 42 46 47 60 61 63 65 66 72 80 81 93 105 106 109 111 114 116 118 119 121 122 123 130 131 134 135 136 137 142 146 149 150
0 1 3 7 8 10 17 23 24 26 31 32 33 35 37 38 39 40 42 44 45 52 53 54 55 56 58 59 60 61 65 66 69 76 77 78 79 80 82 87 89 90 92 94 98 106 107 108 109 111 112 114 115 117 118 121 123 129 131 132 134 136 137 138 143 144 147 148
0 1 2 4 11 12 13 14 15 17 19 20 21 22 26 27 31 34 36 37 38 40 41 42 43 49 50 52 53 55 57 58 59 60 63 64 65 68 69 70 74 75 80 81 84 85 87 88 93 104 109 111 113 114 115 116 118 119 120 121 124 125 126 127 128 130 131 137 139 142 144 146 147 150
1 2 3 5 9 10 11 12 14 16 17 21 22 23 24 27 29 30 34 36 37 42 45 49 51 52 54 55 56 58 59 60 62 63 68 73 75 81 83 87 88 89 90 95 97 98 99 100 101 102 103 106 108 111 113 115 124 125 126 127 133 140 144 147 149 150 151
3 7 9 11 12 13 15 16 21 23 24 26 27 29 36 42 43 44 45 46 50 51 52 55 57 58 61 64 65 66 70 72 73 76 77 80 84 87 88 89 90 95 96 100 106 109 110 113 114 117 118 120 122 123 124 125 126 127 129 130 131 133 137 138 142 144 145 147 148 151
0 9 11 14 17 20 22 23 26 29 34 35 38 40 41 42 43 45 48 49 52 53 58 59 60 61 62 63 64 65 66 67 70 72 73 75 78 86 90 93 96 98 100 103 109 110 111 113 115 119 120 124 125 126 128 131 136 139 147 151
0 2 6 9 14 15 19 22 23 26 27 28 30 31 33 37 38 39 40 43 45 46 48 49 50 52 57 64 65 66 67 69 73 74 77 81 82 84 88 89 91 92 97 100 101 102 103 105 107 108 109 110 113 115 116 119 124 127 129 130 136 138 139 142 143 144 145 147 149 151
0 1 4 6 7 10 11 13 15 17 18 19 20 21 22 25 27 29 33 36 37 39 44 49 50 51 53 54 57 58 63 67 68 71 73 74 76 77 80 82 83 84 85 88 89 93 94 95 101 104 106 107 108 109 112 113 115 116 117 119 122 124 125 126 128 129 130 133 135 136 138 142 143 144 145 146 149 151
4 7 8 10 12 14 19 20 21 24 25 26 27 28 30 31 32 35 37 38 39 40 45 46 48 49 51 53 54 58 61 62 66 73 75 76 79 80 88 90 94 95 97 98 99 100 103 106 107 108 109 111 113 116 118 126 127 129 130 134 135 138 140 141 142 143 145 146 148 149 150 151
0 1 3 5 7 8 10 13 14 19 20 22 28 29 30 31 34 35 36 41 42 45 48 51 52 57 58 60 61 63 64 67 68 70 72 73 74 75 76 80 81 82 84 86 89 92 94 95 97 98 99 102 104 112 116 117 120 121 122 125 133 136 137 140 142 146 148 151
0 4 9 10 11 12 15 16 17 20 25 26 29 30 33 34 36 39 40 43 46 47 48 60 62 63 64 69 70 77 79 84 87 88 90 92 93 94 96 98 99 101 102 106 107 108 110 111 112 113 115 117 120 121 123 124 125 126 127 128 129 130 131 135 136 144 146 149 151
0 5 9 10 15 16 19 21 22 23 28 29 34 35 36 38 44 46 47 48 50 51 52 54 55 59 60 62 63 65 68 69 70 71 78 80 83 84 85 88 89 93 97 98 103 104 105 119 120 121 124 126 130 132 136 137 140 144 145 147 148 149 151
0 2 5 8 9 13 14 15 18 19 21 23 26 28 29 30 33 34 36 38 42 46 48 49 57 60 63 68 72 73 74 75 77 79 80 82 83 86 87 89 90 91 92 93 98 99 107 108 109 114 119 120 121 122 124 129 131 134 139 141 143 144 147 149 151
3 5 6 11 12 23 26 30 33 37 42 46 47 52 54 55 57 58 65 67 71 76 77 79 81 83 87 88 89 91 93 94 97 98 99 100 102 103 104 106 108 109 111 113 114 115 117 118 124 127 136 137 139 141 148 149 150
0 4 5 6 7 9 10 11 12 13 14 16 17 20 21 22 23 28 29 30 31 32 33 37 40 41 44 46 47 48 49 50 51 52 56 59 65 67 68 69 70 71 73 74 76 80 81 82 83 88 89 96 97 100 103 105 109 112 113 114 116 117 119 120 122 123 125 126 127 129 130 132 134 138 142 146 147 148 149
1 2 4 5 9 10 11 12 13 14 16 17 18 19 21 22 23 27 30 32 33 34 38 44 45 47 48 50 54 55 57 58 61 67 70 75 78 79 81 82 89 93 97 99 100 101 103 104 106 108 111 113 115 116 117 123 126 127 129 133 134 137 138 143 145 147 149
1 2 5 6 7 8 11 12 13 15 17 21 22 23 24 25 27 29 32 35 39 42 43 45 50 51 52 53 54 57 58 59 61 66 68 70 73 74 76 77 79 81 82 83 84 85 86 89 92 94 96 97 99 100 101 104 105 106 107 109 110 111 115 116 119 120 121 123 128 129 130 131 132 133 134 136 138 140 142 143 147 150
1 2 3 5 6 7 13 14 18 20 21 25 26 27 29 31 32 33 34 36 37 43 44 48 49 52 56 57 58 60 65 66 67 69 71 73 74 76 77 79 80 82 83 85 87 90 93 97 99 102 105 110 117 118 123 124 125 126 127 129 130 135 136 138 139 140 144 147 148 149 151
1 2 4 6 7 10 12 13 18 19 20 21 23 27 28 32 34 36 38 39 40 41 42 49 52 55 56 57 59 60 62 64 67 70 72 73 74 79 83 84 85 87 88 89 90 94 98 99 100 102 103 105 106 109 111 113 116 117 119 120 121 123 124 125 126 127 129 130 136 137 140 144 145 146 147 150 151
0 1 2 5 8 9 11 13 14 19 21 22 24 25 27 28 38 39 41 42 43 48 49 50 51 54 56 58 59 60 67 69 72 75 77 81 84 85 86 91 94 96 97 98 100 101 102 103 104 109 110 111 113 114 116 117 118 121 122 124 127 128 135 136 139 141 142 146 147 150
0 1 2 4 8 13 18 20 21 22 25 26 27 33 34 36 37 38 39 40 42 43 45 47 49 50 52 59 63 65 68 73 80 82 83 85 86 88 92 94 96 97 99 105 108 109 110 111 112 113 114 117 118 122 123 125 126 127 131 132 133 134 136 137 138 141 145 146 147 148 151
0 1 3 6 10 13 14 18 19 21 23 24 25 30 31 33 34 35 36 40 42 45 46 47 48 50 52 54 56 57 61 62 65 66 67 68 69 70 71 72 75 76 82 83 84 86 88 89 90 91 92 94 95 106 109 111 112 113 114 118 122 126 129 130 132 133 134 136 137 138 141 142 145 149
0 1 3 5 6 13 15 19 20 21 24 27 30 32 34 35 39 42 43 44 47 48 49 53 54 55 58 61 67 68 71 72 73 74 80 81 82 83 84 87 88 89 91 93 94 95 97 99 100 101 102 103 104 110 113 118 123 124 126 128 129 133 136 138 141 148 149 150 151
3 4 5 7 8 9 14 15 18 20 21 22 24 26 31 32 35 36 37 39 42 44 47 52 53 60 64 65 67 69 70 71 72 74 75 76 80 81 84 85 87 89 90 93 94 97 98 100 102 106 107 108 111 113 115 117 118 119 120 125 127 131 132 133 134 135 136 137 138 139 141 143 144 147 150 151
1 4 5 8 11 12 13 14 18 19 21 22 27 29 30 31 32 33 34 37 39 41 42 44 45 46 48 49 51 57 63 65 69 70 71 72 74 78 80 82 83 84 85 86 88 91 92 95 96 98 99 101 102 108 109 110 113 119 120 121 125 126 130 131 134 136 138 139 141 146 149 150 151
0 7 8 12 13 17 18 21 22 23 25 27 29 30 33 35 36 44 50 51 54 55 56 58 59 61 62 66 69 70 72 75 76 77 83 85 90 92 96 98 104 107 108 109 110 112 113 114 115 116 118 122 132 140 143 146 147 151
0 2 4 5 14 15 19 24 26 27 29 31 35 36 39 41 43 44 47 49 50 53 55 57 58 60 61 63 66 67 69 70 71 75 84 88 90 92 99 101 103 107 109 110 116 118 120 122 123 124 125 127 128 129 131 135 136 137 139 140 142 147 149 151
0 1 2 4 5 6 7 10 14 16 21 22 24 25 29 30 31 32 39 41 43 46 50 53 54 63 64 65 67 68 73 75 76 79 80 86 87 88 93 96 98 100 101 104 105 109 110 112 114 116 118 122 123 124 134 137 139 140 141 145 146 147 151
0 1 4 6 8 9 17 18 19 21 26 29 31 42 45 46 47 49 53 57 58 60 61 62 63 68 74 81 82 84 86 87 90 95 96 103 104 108 112 113 115 118 121 122 124 127 129 133 134 139 140 141 143 145 146 148
0 1 2 4 6 8 9 11 13 17 18 19 20 26 27 30 32 34 35 37 40 41 43 44 45 46 49 52 54 56 58 63 66 68 71 74 75 77 79 80 85 90 97 98 102 106 108 110 111 113 120 125 127 128 129 132 133 135 140 142 143 144 145 146 149 150
0 1 4 5 9 10 11 12 13 14 15 17 18 19 21 22 24 26 27 29 30 31 32 33 35 36 37 41 43 44 45 47 50 53 54 56 57 61 62 63 64 66 71 73 74 77 78 79 81 82 83 87 88 89 90 94 96 100 101 102 104 107 108 110 112 114 116 117 119 122 124 126 129 130 131 132 133 134 142 143 144 145 146 150 151
0 1 2 4 7 8 9 11 12 13 15 16 18 22 26 27 29 30 31 33 39 42 44 46 47 48 53 60 70 72 73 74 76 77 81 86 87 88 93 96 99 103 104 105 107 108 109 111 114 116 119 120 121 122 125 127 128 129 131 132 133 135 137 139 141 142 145 148 149
2 4 9 10 12 13 15 17 18 19 20 22 24 27 28 29 30 31 33 37 38 39 40 45 46 47 51 54 56 59 61 62 64 65 66 71 72 74 77 78 88 89 90 93 94 97 100 103 106 107 108 111 112 113 114 119 122 123 124 126 127 131 135 136 137 141 144 145 147 150
0 6 9 10 14 19 20 22 23 24 25 26 28 29 32 33 36 37 43 44 49 50 53 54 56 58 60 66 67 69 73 82 84 88 90 91 97 99 105 106 107 113 115 120 121 124 126 128 129 130 131 135 136 140 142 144 148 150
3 4 7 8 11 14 17 18 19 20 31 33 36 38 39 46 49 53 56 58 60 65 66 67 69 71 78 81 82 83 87 88 93 96 99 104 112 113 119 123 126 127 128 131 133 135 136 138 144 148 149 150
0 1 2 4 12 14 15 16 19 22 23 24 26 28 30 31 33 35 37 38 39 40 48 52 54 55 56 57 58 70 74 77 78 79 82 84 85 87 88 93 94 95 98 99 101 103 106 108 109 110 112 113 119 122 124 130 132 135 137 139 143 147 149 151
0 3 4 6 9 10 11 13 15 16 20 21 22 23 24 26 30 32 33 34 37 38 46 51 55 58 60 65 67 70 74 76 78 79 80 82 83 85 87 88 89 93 95 99 102 103 104 105 115 120 123 124 125 127 128 132 133 134 135 137 139 140 143 145 148 149 150 151
0 2 4 6 7 8 10 11 12 15 19 20 23 26 27 28 29 30 32 33 34 39 41 42 45 48 49 51 52 55 60 62 64 68 73 74 77 79 80 83 86 88 92 95 99 101 102 104 107 110 111 115 120 125 126 127 129 132 134 136 141 143 144 146 147 149 150 151
0 1 2 3 4 7 13 14 16 17 19 20 24 27 28 29 32 33 34 36 44 45 49 53 54 57 58 60 61 62 67 68 71 72 75 77 78 79 81 82 83 84 85 88 91 92 94 95 98 102 105 107 112 113 114 115 116 118 124 128 130 131 132 133 134 135 136 137 139 141 143 145 148 151
1 2 4 6 9 15 17 19 21 22 33 34 35 37 41 42 43 45 46 47 49 50 51 54 55 61 62 64 66 69 71 73 76 77 78 79 84 86 91 92 93 94 96 97 100 101 102 103 104 106 108 110 115 117 119 126 129 131 132 133 138 139 140 141 145 146
1 2 3 4 6 8 10 15 19 25 30 31 35 37 39 40 42 44 48 49 50 55 56 57 65 66 71 72 76 77 79 83 84 85 89 90 91 92 96 97 102 103 104 105 110 113 115 117 118 120 121 122 125 126 128 129 130 131 132 134 138 139 140 141 143 144 145 147 148 151
3 6 7 9 10 13 14 15 16 18 21 22 23 25 26 27 29 30 34 38 39 42 45 47 49 51 52 53 54 61 62 67 72 74 76 78 81 82 83 85 86 88 89 90 91 93 95 96 97 98 99 101 104 105 106 107 108 119 120 122 124 125 126 128 133 134 135 139 140 145 147 149 150 151
0 1 2 6 7 8 10 11 12 14 16 17 19 30 32 33 37 38 39 42 43 44 46 49 51 52 53 54 59 63 64 71 74 78 79 83 84 85 86 89 91 93 94 96 97 98 101 105 106 112 113 114 115 121 123 124 129 130 131 133 135 136 137 138 140 143 144 147 148 149 150
0 4 5 8 10 11 12 13 17 23 24 26 27 35 39 41 42 45 49 50 51 52 54 57 58 60 62 66 67 68 70 72 77 80 81 82 83 84 85 87 92 93 94 96 97 99 101 105 107 109 111 112 113 114 118 119 121 123 124 125 126 131 132 135 137 141 142 146 149
1 2 4 7 8 9 12 14 16 17 20 21 23 24 26 28 32 33 37 40 46 47 49 50 51 52 53 59 60 66 68 69 71 73 77 79 81 85 86 88 92 94 96 97 100 101 105 108 109 110 114 118 120 122 123 127 128 131 136 138 140 141 143 144 147 148 149 150 151
2 3 4 8 9 14 16 17 19 26 27 31 32 33 34 35 36 37 40 42 44 45 46 48 50 55 58 59 61 65 67 72 75 77 78 80 84 85 86 89 90 93 94 99 100 103 106 108 110 114 115 116 117 119 121 126 129 130 132 133 136 137 140 141 142 143 144 145 148 149 150
1 2 3 4 5 6 9 10 18 19 20 21 24 25 27 30 34 35 37 40 42 44 45 46 50 51 52 56 57 58 59 60 63 64 65 69 70 76 80 81 85 89 91 93 94 95 103 104 106 113 114 116 117 120 121 123 128 130 132 135 138 140 141 142 146 147
0 2 3 6 8 9 10 11 15 16 18 20 21 25 27 30 31 33 36 37 40 43 47 49 51 53 54 55 57 66 73 77 83 84 85 93 95 96 99 102 103 106 107 109 112 113 115 116 118 120 121 124 129 130 132 133 136 138 139 140 141 147 148
2 6 8 11 13 14 15 22 23 24 25 29 32 35 36 37 41 42 44 45 49 51 53 55 59 64 67 68 69 74 80 81 85 89 90 92 94 97 100 101 102 104 109 117 118 120 121 123 128 130 131 132 138 139 140 143 144 145 148 149
2 4 6 7 10 13 14 18 19 20 25 26 27 29 32 34 35 38 40 41 44 45 47 53 57 58 59 60 63 65 66 67 68 71 72 73 75 78 82 84 88 91 92 94 95 96 97 102 106 112 120 122 123 124 126 127 129 132 133 134 135 137 138 141 142 145 147 149 150 151
2 5 7 8 13 15 18 19 21 23 24 26 27 29 33 39 43 52 58 60 62 63 64 66 67 69 70 73 77 80 83 89 91 92 93 95 96 98 100 102 104 105 106 108 110 111 114 115 116 118 120 121 123 132 135 136 137 141 149 150 151
0 1 3 6 7 9 10 12 13 16 19 22 26 29 36 38 40 41 43 44 45 46 55 57 58 63 64 65 66 67 68 70 72 81 83 86 92 94 95 98 99 100 101 103 104 106 111 112 114 115 117 119 121 123 126 134 135 144 146 149 151
0 3 7 8 10 11 13 15 19 20 21 22 23 24 26 28 29 30 32 35 36 37 39 40 42 45 48 50 51 52 55 57 64 65 71 73 74 76 78 84 87 88 91 98 101 103 104 112 116 117 119 124 125 127 128 129 130 131 134 135 137 138 139 140 143 145 146 147 150
0 6 7 8 11 13 14 18 19 20 21 22 23 26 28 30 31 34 37 41 42 43 44 47 50 51 56 58 59 62 66 69 71 72 74 76 79 82 83 85 89 92 94 96 100 102 103 105 106 107 108 109 110 111 112 113 114 117 122 124 132 133 134 139 141 144
1 5 12 13 14 19 20 23 24 25 27 29 34 35 37 40 42 43 44 45 48 49 50 52 56 58 61 62 63 64 66 69 71 77 81 84 86 87 88 90 91 92 94 96 105 106 107 113 114 115 117 118 123 128 130 131 133 134 136 137 138 141 142 144 145 146 147 148
1 6 8 10 17 19 24 31 35 39 40 41 42 44 45 46 48 49 50 52 53 58 62 64 65 66 68 69 70 71 75 78 79 81 86 90 92 94 96 98 99 101 102 103 104 110 113 115 118 119 120 122 130 135 136 137 138 139 140 142 144 149 150 151
1 2 3 6 8 12 13 14 17 18 19 21 24 27 30 32 34 35 37 38 39 44 46 47 49 50 51 52 54 56 61 63 66 67 68 70 71 73 75 77 80 82 86 87 90 93 94 98 101 103 107 111 112 113 115 121 125 126 128 129 131 133 134 135 136 138 139 141 144 145 146 148 150 151
0 1 3 8 12 13 14 15 24 25 27 30 35 39 44 45 46 47 48 51 52 53 57 63 64 66 68 69 70 71 72 73 74 75 76 81 87 88 89 92 93 94 96 97 98 104 107 110 114 115 119 120 122 123 125 129 130 131 134 138 140 146 148 149 151
3 5 8 13 14 16 20 21 22 25 26 33 37 40 44 47 48 49 52 55 56 59 65 67 69 70 72 73 79 82 83 84 87 88 90 92 95 97 98 103 105 106 108 109 110 116 118 121 122 123 124 125 126 127 128 129 130 134 135 140 142 143 144 150
0 5 6 7 11 15 17 20 22 24 25 26 29 30 31 32 38 40 41 45 46 50 51 55 56 58 59 62 63 64 71 80 82 84 85 86 90 91 92 94 95 96 97 98 100 106 107 109 111 116 118 121 122 125 126 128 131 133 134 138 140 143 146 148 150 151
0 1 3 6 7 8 9 10 16 20 22 25 26 30 31 32 34 35 36 38 39 41 42 46 48 49 50 52 54 55 58 59 60 61 62 63 64 65 66 69 72 77 80 82 85 86 91 93 94 95 96 97 99 101 102 103 104 105 108 112 115 117 120 122 128 130 131 134 136 137 139 141 144 145 146 147 148 151
1 3 4 6 7 8 11 12 17 19 20 23 24 29 31 32 34 35 37 39 40 41 42 43 44 46 49 50 51 58 60 64 68 69 70 73 74 76 78 81 85 92 94 97 99 101 102 104 107 108 110 114 115 116 117 121 122 123 127 128 131 135 138 140 149
1 3 4 6 7 10 11 12 13 16 18 23 24 25 27 29 31 32 33 36 38 40 45 46 49 51 53 54 56 57 58 60 61 68 69 73 76 82 83 84 86 87 91 92 94 95 96 97 99 103 105 106 107 108 109 110 112 116 118 119 120 121 123 124 131 133 135 136 139 141 142 144 145 146 147 149 151
0 2 8 9 12 13 14 15 16 18 21 22 23 24 25 27 34 40 41 47 49 50 52 61 66 67 68 69 70 74 77 78 80 82 87 88 90 94 95 99 101 113 116 117 122 126 131 132 139 140 141 142 143 149 151
0 2 4 6 8 9 11 12 13 15 16 17 19 23 25 29 34 37 38 40 44 48 49 52 53 54 65 66 67 68 71 72 76 77 78 79 81 82 83 85 86 87 89 90 94 97 99 101 107 114 115 116 117 122 125 126 127 128 130 131 132 133 134 135 137 138 143 146 147 148 151
0 7 8 10 15 18 19 20 24 25 27 28 30 33 35 38 39 40 41 43 45 50 51 55 59 60 62 63 64 67 69 70 71 73 74 75 78 84 85 88 95 99 101 102 104 106 107 108 110 113 114 116 122 123 124 130 131 135 136 137 140 141 142 146 147 149 150 151
0 2 3 4 6 11 12 13 15 16 17 18 20 22 23 24 29 35 36 37 38 41 44 46 47 48 49 50 51 58 60 63 66 67 70 71 72 73 74 76 77 79 81 82 83 84 85 87 88 89 90 91 92 95 101 103 107 110 111 112 113 114 117 118 121 123 124 126 128 129 130 131 132 133 134 135 138 139 140 141 142 144 145 146 148 149 150
3 5 6 7 9 10 12 17 18 23 25 31 32 35 36 37 49 50 52 56 63 64 65 66 69 74 75 77 78 79 86 87 88 90 91 93 94 98 103 104 105 107 109 111 112 117 124 125 126 129 131 133 136 137 140 142 143 145 147 148 150
2 6 8 9 16 19 20 22 24 25 26 32 33 38 42 44 47 48 52 53 55 56 58 59 62 67 68 69 70 71 72 75 77 78 81 82 83 85 87 88 90 98 99 100 101 103 104 105 106 108 110 112 116 117 118 120 121 123 124 126 129 132 138 139 141 143 146 149 150 151
0 2 4 6 8 10 11 12 13 14 15 20 22 23 25 26 31 34 36 37 39 41 42 43 44 45 47 48 50 51 57 60 61 67 68 69 70 71 72 76 77 85 86 87 88 89 90 92 98 99 100 102 105 107 111 114 116 117 119 120 122 124 125 127 130 134 136 137 139 145 146 147 151
2 3 4 6 9 10 11 14 17 18 20 21 24 27 29 31 33 36 37 38 39 40 41 46 47 51 52 53 55 57 63 66 69 70 78 79 80 83 84 85 86 87 95 96 97 100 105 106 108 110 111 112 113 119 121 122 123 126 129 130 134 135 136 138 139 140 144 145 147 151
1 4 7 10 11 12 13 17 18 20 22 25 27 31 36 37 38 40 41 43 44 45 46 48 50 52 54 59 61 62 63 64 65 69 71 73 75 79 83 88 89 90 91 92 93 96 97 102 104 105 108 110 111 114 115 116 117 119 120 121 122 124 125 126 128 131 137 138 139 142 146 151
15 16 19 23 31 32 33 34 36 41 42 43 44 46 47 50 51 55 58 60 67 72 73 76 78 79 81 87 96 97 98 103 106 109 112 113 114 115 117 118 119 120 122 124 125 126 131 134 139 140 141 142 147 148 151
1 2 4 5 7 8 9 13 24 27 31 34 35 38 43 44 47 50 52 54 55 58 63 65 67 69 70 71 72 76 79 80 83 84 88 89 91 92 93 94 96 106 112 114 115 116 117 119 121 129 131 132 137 138 140 141 147 148 149
0 4 9 10 11 12 13 15 16 17 19 24 27 31 34 37 38 41 45 46 47 50 51 52 57 58 64 65 66 67 68 75 76 77 78 81 83 88 89 93 97 99 103 104 105 106 107 113 116 118 120 121 122 123 127 134 136 138 141 142 147 151
0 1 2 5 14 16 17 18 19 20 21 22 23 25 26 31 33 34 36 39 41 42 43 46 47 50 54 56 59 60 63 64 67 68 73 74 75 79 80 81 83 84 86 88 90 94 95 96 100 102 105 110 111 112 117 125 126 127 130 131 133 135 140 143
2 3 4 5 7 9 10 13 16 17 19 22 23 25 30 35 37 39 41 43 44 47 50 53 55 56 58 59 62 64 65 67 68 69 74 76 78 79 80 83 85 88 89 93 95 96 99 102 105 106 115 121 122 124 131 132 133 143 145 146 147 149 151
1 3 4 9 10 13 15 16 19 24 25 27 28 34 39 42 44 45 46 48 55 59 61 64 66 68 69 70 71 72 78 81 82 86 88 90 95 96 97 98 99 102 103 104 106 107 108 109 113 114 115 116 117 120 124 128 130 133 136 138 142 143 145 150
0 1 2 5 7 14 18 19 20 23 24 25 28 29 31 32 35 36 38 41 43 44 46 49 51 57 60 61 63 67 69 70 73 74 75 77 78 79 81 82 86 87 90 93 96 98 100 101 102 104 105 107 108 109 111 112 113 114 115 116 117 120 121 122 123 124 125 130 131 132 136 137 139 141 143 145 146 149
0 1 3 7 10 13 16 17 19 20 21 22 24 25 27 29 34 35 36 38 40 44 51 53 54 58 59 60 61 65 66 69 71 75 81 82 84 85 87 89 90 92 93 94 95 97 102 105 106 110 113 114 124 126 127 130 132 135 137 140 141 143 144 149 151
0 1 6 9 10 12 13 14 15 16 17 18 19 25 27 29 31 34 35 36 38 40 41 43 48 51 52 53 56 57 58 59 60 63 67 69 72 73 78 81 86 88 89 90 93 96 98 99 105 106 110 111 112 113 119 120 123 125 129 130 133 135 136 137 141 142 143 144 145 146 147 148
0 1 2 5 6 8 9 10 11 12 13 15 17 19 20 22 23 24 28 29 30 32 33 34 35 36 40 41 42 44 46 47 48 49 52 53 54 55 59 63 71 72 75 76 81 86 87 90 95 100 105 106 111 112 113 114 120 122 124 125 128 129 130 132 136 140 143 144 147
2 10 13 17 19 22 23 24 27 32 33 34 38 44 45 47 48 50 52 53 54 55 57 58 63 65 67 68 72 73 78 81 83 85 86 89 90 93 94 96 98 99 103 107 108 111 113 116 117 122 124 127 129 131 133 134 136 142 147 151
1 2 4 5 6 7 8 9 10 11 14 15 16 17 21 24 25 27 28 29 30 31 33 36 38 41 43 44 46 47 48 49 51 57 59 60 65 71 78 79 81 84 87 94 95 97 98 99 103 106 108 109 110 112 113 115 116 120 121 122 123 124 125 126 127 128 129 130 132 137 138 140 141 143 146 147 148 149 150 151
1 6 8 9 10 13 17 18 20 21 22 23 26 27 29 35 37 38 42 48 49 53 55 56 58 60 62 63 66 70 71 75 77 79 80 81 84 88 90 94 95 96 98 100 101 103 106 108 109 111 114 115 118 120 121 122 123 124 125 127 135 136 137 138 139 141 142 146 148 149
0 2 3 5 6 7 8 9 11 19 20 21 22 25 27 30 31 32 33 34 35 36 38 41 42 43 46 47 48 49 50 51 52 53 56 57 60 61 62 63 66 68 70 71 74 75 81 82 83 84 91 93 94 98 100 102 105 106 107 108 109 110 111 116 117 122 124 125 127 128 133 134 135 136 137 138 139 142 143 146 147 150
1 2 5 7 11 16 17 20 21 22 25 27 28 29 30 32 40 41 42 47 48 49 53 55 58 59 60 66 70 71 72 73 74 78 79 81 82 85 89 92 93 94 97 99 100 101 105 106 107 109 112 117 118 120 121 124 127 129 130 131 133 134 135 136 139 141 143 147 150 151
3 4 5 9 10 11 15 17 22 25 27 29 30 31 33 34 35 38 41 43 44 51 53 56 61 64 65 66 67 68 70 73 75 78 79 82 83 84 85 88 89 92 99 100 101 104 105 106 111 112 116 118 120 125 126 130 131 132 134 137 138 141 142 143 144 145 146 148 149
3 4 6 7 9 11 14 15 16 17 25 26 28 30 34 35 36 37 42 43 44 46 47 53 54 55 58 59 66 73 74 75 78 80 86 87 89 90 91 92 93 96 97 99 101 102 105 106 110 111 113 115 117 118 119 121 122 123 125 128 130 131 132 133 134 135 140 141 144 145 149
5 6 9 10 14 15 16 17 18 19 22 25 27 29 32 35 37 38 41 42 43 45 46 47 48 51 58 67 68 73 74 76 79 80 81 82 88 89 91 92 94 95 96 97 99 100 101 103 105 106 110 113 114 116 122 123 124 132 135 138 140 142 144 147 149
1 2 7 8 10 14 17 18 22 25 28 29 30 32 36 41 45 47 48 49 50 51 53 54 55 56 66 68 71 72 75 76 78 82 83 86 87 90 94 96 100 102 112 114 115 116 120 122 124 125 126 127 130 135 136 140 141 144
0 2 3 7 9 12 14 15 17 22 27 28 30 33 34 35 39 40 42 44 46 51 52 58 59 60 62 63 67 69 71 73 79 80 83 85 90 97 98 99 100 101 108 116 121 124 125 126 128 130 131 133 136 137 147 148 149
1 2 3 4 5 6 8 10 12 13 15 17 19 26 27 30 32 33 37 38 39 40 42 44 46 51 52 54 57 59 61 64 65 68 69 72 74 75 76 77 78 83 85 88 90 96 97 99 100 102 105 106 108 109 111 112 114 115 118 121 122 123 125 127 128 129 130 131 134 135 136 138 143 145 148 149 150 151
1 3 4 7 8 9 10 12 14 15 20 23 24 25 26 27 28 29 30 37 38 39 40 44 46 47 52 56 59 61 68 70 71 73 74 75 76 78 79 84 86 87 89 90 94 96 98 99 101 102 104 106 111 112 114 116 119 120 126 128 134 135 137 139 143 144 145 151
1 2 3 5 7 15 17 22 24 26 27 28 32 35 37 40 42 47 48 49 53 54 55 56 58 59 60 63 68 69 72 77 81 83 85 86 87 88 89 91 92 93 97 98 99 100 102 104 106 109 110 111 112 113 116 117 118 120 127 128 130 131 132 133 139 143 146 150
0 1 5 7 8 13 18 19 24 25 26 28 29 32 38 42 43 44 45 46 48 50 54 55 60 62 64 70 71 72 74 76 77 78 79 82 85 86 89 90 93 94 96 98 102 106 108 111 112 116 117 120 124 126 131 132 133 135 136 140 141 143 145 148 150
2 3 5 6 7 8 9 10 12 16 21 22 24 26 30 31 32 33 34 35 38 39 40 41 45 46 47 50 54 55 56 58 60 61 63 64 66 69 70 71 75 77 80 81 86 90 93 94 95 96 97 99 100 104 105 106 107 109 110 111 112 113 114 117 118 119 123 126 127 130 132 133 136 137 139 142 143 147 148 151
2 3 7 10 11 14 15 16 17 23 30 31 32 33 35 37 38 42 45 46 48 51 52 54 57 59 64 65 68 69 71 80 84 85 86 87 92 95 97 99 100 103 106 108 109 111 112 113 115 116 118 119 120 127 128 130 131 135 139 142 145 146 149 150
2 4 8 10 13 14 16 18 19 20 22 25 27 30 31 32 33 35 36 38 39 42 43 45 46 48 49 50 52 58 60 61 62 65 67 68 69 71 73 77 79 84 86 87 91 92 94 95 96 98 99 100 103 107 111 115 118 119 121 123 124 127 129 130 131 137 138 140 143 144 146 150
0 4 5 6 8 10 11 14 16 17 18 25 27 30 31 32 34 36 38 41 42 43 45 46 47 48 51 54 56 57 59 60 62 64 65 72 77 80 86 89 92 97 102 103 107 110 111 112 113 114 118 120 122 124 125 126 129 130 132 133 135 138 143 144 145 151
5 12 14 16 18 19 21 22 30 33 35 38 44 47 50 54 57 59 61 62 64 66 68 69 72 74 76 80 82 84 86 87 88 89 92 94 99 105 109 111 113 116 119 120 121 122 125 129 132 134 135 138 141 142 145 149 151
0 1 2 3 4 5 7 10 12 14 19 20 27 29 32 34 35 36 38 40 42 43 44 45 46 49 50 54 56 57 58 59 61 65 67 68 70 73 75 77 80 84 85 86 94 95 96 98 101 108 109 110 111 114 120 126 127 128 130 131 132 137 140 141 143 144 145 148 149 150 151
1 3 5 6 7 8 11 12 13 16 17 18 19 21 25 28 30 32 34 35 36 38 39 42 44 45 46 49 52 58 61 63 66 68 70 73 74 75 76 80 82 83 85 86 88 92 93 94 97 98 103 105 106 107 108 109 111 114 115 116 118 119 120 122 124 125 126 127 129 133 134 137 138 141 142 143 146 149
0 1 2 4 5 10 12 13 20 24 27 28 29 30 32 33 38 40 44 48 51 52 54 58 59 60 61 62 66 67 68 70 71 72 76 80 82 84 85 87 88 89 90 91 92 93 94 95 99 100 101 103 104 106 110 114 115 116 119 120 122 123 125 126 129 134 138 139 142 144 146 149 150
0 4 6 11 15 17 18 20 21 22 27 29 39 42 44 48 49 51 53 57 58 59 63 64 65 66 67 68 71 73 74 75 76 77 78 81 91 92 94 96 101 104 106 107 109 111 115 116 117 122 123 124 127 128 129 139 142 144 145 147 148 150 151
0 5 6 7 8 10 11 13 15 17 18 19 24 25 26 27 31 32 35 37 43 44 48 49 50 51 56 57 58 59 62 64 66 67 69 70 73 75 77 81 82 84 87 90 92 94 95 103 104 105 108 110 113 114 116 119 122 123 124 127 130 134 142 143 145 146 148 149 150
0 2 3 5 6 9 10 12 13 18 21 25 26 27 28 29 36 40 42 43 44 48 49 51 52 55 56 58 64 65 66 68 69 77 79 80 81 82 84 85 86 87 88 92 94 97 98 100 102 110 113 114 115 116 120 121 128 130 131 133 135 138 142 145 151
2 3 7 10 11 12 18 19 22 23 24 27 28 35 36 38 45 47 51 54 57 59 60 61 62 63 64 66 69 70 71 74 77 78 79 80 83 84 86 89 90 92 93 94 98 103 107 108 112 113 114 116 117 118 120 121 123 125 127 128 134 137 141 143 146 147 148 150
2 5 7 8 10 11 16 17 20 22 23 25 26 28 29 33 34 35 37 38 39 41 44 45 46 47 48 49 50 51 52 54 60 61 62 65 66 70 72 73 75 78 82 83 84 88 90 93 95 97 98 102 105 106 108 109 110 112 113 114 118 119 120 123 124 141 142 143 147 149 151
3 6 9 11 15 16 19 22 23 24 25 27 28 29 30 32 37 39 41 43 46 48 49 51 54 55 59 60 63 64 66 70 71 73 77 78 80 82 83 88 92 93 95 97 99 101 106 107 108 111 112 113 115 119 121 124 126 129 130 135 139 141 144 146 149 150
1 3 5 7 8 10 12 13 14 15 16 19 22 29 32 34 35 36 42 43 44 45 48 49 50 51 52 62 67 68 70 72 74 75 76 77 80 82 83 84 85 87 89 92 94 96 98 99 101 102 105 111 112 113 115 117 120 126 127 128 130 131 134 139 141 142 148 149
0 1 3 9 11 13 14 15 18 19 20 23 25 30 33 34 40 41 45 47 51 52 54 55 56 59 63 64 66 67 68 69 75 76 80 81 83 84 88 90 91 94 96 97 98 99 100 106 112 113 114 121 122 124 125 131 132 137 138 140 142 144 145 146 147
0 4 6 7 8 12 16 18 19 21 24 26 31 36 37 39 44 45 46 53 54 55 56 57 61 64 67 68 69 70 72 73 74 75 76 80 83 85 86 87 89 91 93 94 95 98 100 101 103 107 109 111 116 117 118 123 126 129 139 142 144 149 150
5 6 7 8 10 16 17 18 23 24 26 27 36 40 41 47 48 49 50 51 52 55 56 59 60 65 66 67 68 71 72 73 74 75 77 78 81 82 84 88 90 91 93 94 96 100 101 102 106 107 108 111 112 114 115 116 118 123 128 129 130 135 136 137 138 143 144 146 147 149 150 151
0 3 4 8 11 13 14 15 20 23 28 30 32 34 35 36 37 42 44 47 49 54 57 58 59 61 71 73 74 77 82 83 86 90 91 93 94 95 99 100 102 105 108 110 112 113 115 117 124 125 128 130 131 132 133 134 136 138 139 140 143 144 145 146 147
3 11 12 17 22 23 25 26 29 34 35 36 40 43 44 51 53 56 57 58 63 64 65 66 68 70 72 73 76 80 86 87 91 92 95 96 103 104 105 106 107 108 109 111 113 114 115 120 121 122 123 124 126 127 129 130 133 135 136 141 142 144 147
0 2 3 4 6 12 16 17 26 27 29 30 31 32 34 35 38 39 40 45 46 51 57 58 60 61 62 65 68 70 72 73 76 79 81 82 83 84 86 88 90 94 98 107 108 109 115 116 117 118 121 126 127 129 131 132 137 139 140 141 142 143 145 149 151
1 2 4 12 14 17 21 22 23 32 34 35 36 39 43 46 48 49 55 56 57 58 59 60 64 66 67 68 69 73 76 77 80 82 84 88 90 94 95 97 98 104 105 106 108 115 116 120 121 123 125 127 128 129 132 133 134 139 142 144 147 149
3 4 6 9 10 11 14 15 17 19 21 23 24 28 30 35 36 37 38 42 46 47 48 52 53 55 56 57 58 65 67 71 74 79 80 82 84 85 87 88 90 92 93 94 96 97 99 104 106 108 111 112 113 115 122 125 126 130 131 133 135 137 139 141 142 147 148 151
1 2 3 6 7 10 11 12 14 16 19 22 23 24 26 27 29 30 31 32 33 34 39 40 42 43 44 45 46 47 48 51 53 54 55 60 63 65 68 69 70 72 74 75 77 80 82 88 90 92 93 95 97 98 100 101 102 104 108 109 110 111 113 114 117 119 124 132 135 136 139 141 142 143 145 146 149
2 4 6 7 8 12 16 19 20 22 26 27 29 32 36 37 39 41 42 45 48 50 56 59 61 62 64 66 68 70 72 73 75 76 82 84 85 87 88 92 94 95 100 101 108 111 112 115 119 120 123 124 129 132 133 135 138 146 150 151
3 5 7 12 16 18 21 23 25 27 28 31 34 35 36 38 39 40 41 42 43 45 49 50 52 54 57 59 62 63 64 65 69 70 71 72 73 76 77 78 79 83 85 89 90 91 93 94 96 101 104 106 107 111 112 115 116 117 119 120 125 128 129 130 131 133 136 137 138 140 141 144 145 147
0 2 4 10 13 15 17 19 21 22 23 24 25 28 30 31 36 41 44 46 47 50 51 52 57 58 60 61 62 64 65 69 70 72 73 77 78 80 83 84 86 87 93 94 95 96 105 111 113 114 120 122 123 125 126 129 131 132 133 135 137 140 141 148 151
0 2 5 6 10 11 12 14 15 17 22 24 25 26 31 32 33 34 35 36 37 38 39 40 45 46 48 50 51 52 53 54 55 58 63 64 65 66 68 69 72 77 78 79 83 84 85 87 88 90 91 92 93 96 97 98 99 100 102 104 107 110 111 114 120 121 124 127 128 129 132 134 136 141 144 146 148 150
